param sigma
: 1   2 :=
1 0.00001 0.99999
2 0.10000 0.90000
3 0.20000 0.80000
4 0.30000 0.70000
5 0.40000 0.60000
6 0.50000 0.50000
7 0.90000 0.10000
8 0.80000 0.20000
9 0.70000 0.30000
10 0.60000 0.40000
11 0.99999 0.00001
;
set S:=
1 2 3 4 5 6 7 8 9 10 11 12 13 14 15 16 17 18 19 20 21 22 23 24 25 26 27 28 29 30 31 32 33 34 35 36 37 38 39 40 41 42 43 44 45 46 47 48 49 50 51 52 53 54 55 56 57 58 59 60 ;

set C:=
1 2 3 4 5 6 7 8 9 10 11 12 13 14 15 16 17 18 19 20 21 22 23 24 25 26 27 28 29 30 ;

set A:=
1_1 1_2 1_3 2_1 2_2 2_3 3_1 3_2 3_3 4_1 4_2 4_3 5_1 5_2 5_3 6_1 6_2 7_1 7_2 7_3 8_1 8_2 8_3 9_1 9_2 9_3 10_1 10_2 10_3 11_1 11_2 12_1 12_2 13_1 13_2 14_1 14_2 15_1 15_2 16_1 16_2 17_1 17_2 17_3 18_1 18_2 19_1 19_2 20_1 20_2 20_3 21_1 21_2 22_1 22_2 23_1 23_2 23_3 24_1 24_2 24_3 25_1 25_2 26_1 26_2 27_1 27_2 27_3 28_1 28_2 28_3 29_1 29_2 30_1 30_2 30_3 ;

set T:=
1_1_2 1_3_4 1_5_6 1_7_8 1_9_10 1_11_12 1_13_14 1_15_16 1_17_18 1_19_20
2_1_2 2_3_4 2_5_6 2_7_8 2_9_10 2_11_12 2_13_14 2_15_16 2_17_18 2_19_20
3_1_2 3_3_4 3_5_6 3_7_8 3_9_10 3_11_12 3_13_14 3_15_16 3_17_18 3_19_20
4_1_2 4_3_4 4_5_6 4_7_8 4_9_10 4_11_12 4_13_14 4_15_16 4_17_18 4_19_20
5_1_2 5_3_4 5_5_6 5_7_8 5_9_10 5_11_12 5_13_14 5_15_16 5_17_18 5_19_20
;

set R:=
1 2 3 4 5 6 7 8 9 10 11 12 13 14 15 ;

set Ac[1]:=
1_1 1_2 1_3 ;
set Ac[2]:=
2_1 2_2 2_3 ;
set Ac[3]:=
3_1 3_2 3_3 ;
set Ac[4]:=
4_1 4_2 4_3 ;
set Ac[5]:=
5_1 5_2 5_3 ;
set Ac[6]:=
6_1 6_2 ;
set Ac[7]:=
7_1 7_2 7_3 ;
set Ac[8]:=
8_1 8_2 8_3 ;
set Ac[9]:=
9_1 9_2 9_3 ;
set Ac[10]:=
10_1 10_2 10_3 ;
set Ac[11]:=
11_1 11_2 ;
set Ac[12]:=
12_1 12_2 ;
set Ac[13]:=
13_1 13_2 ;
set Ac[14]:=
14_1 14_2 ;
set Ac[15]:=
15_1 15_2 ;
set Ac[16]:=
16_1 16_2 ;
set Ac[17]:=
17_1 17_2 17_3 ;
set Ac[18]:=
18_1 18_2 ;
set Ac[19]:=
19_1 19_2 ;
set Ac[20]:=
20_1 20_2 20_3 ;
set Ac[21]:=
21_1 21_2 ;
set Ac[22]:=
22_1 22_2 ;
set Ac[23]:=
23_1 23_2 23_3 ;
set Ac[24]:=
24_1 24_2 24_3 ;
set Ac[25]:=
25_1 25_2 ;
set Ac[26]:=
26_1 26_2 ;
set Ac[27]:=
27_1 27_2 27_3 ;
set Ac[28]:=
28_1 28_2 28_3 ;
set Ac[29]:=
29_1 29_2 ;
set Ac[30]:=
30_1 30_2 30_3 ;

set Cs[1]:=
6 18 20 23 24 ;
set Cs[2]:=
13 17 21 30 ;
set Cs[3]:=
2 8 12 13 17 ;
set Cs[4]:=
8 11 19 28 ;
set Cs[5]:=
5 7 11 21 22 24 ;
set Cs[6]:=
11 13 23 27 28 ;
set Cs[7]:=
2 15 22 26 28 30 ;
set Cs[8]:=
1 3 6 10 13 23 ;
set Cs[9]:=
7 9 12 17 22 24 ;
set Cs[10]:=
5 10 18 29 ;
set Cs[11]:=
6 7 13 15 20 25 ;
set Cs[12]:=
13 25 26 ;
set Cs[13]:=
2 8 11 15 19 28 ;
set Cs[14]:=
2 16 20 27 30 ;
set Cs[15]:=
4 6 17 18 24 27 ;
set Cs[16]:=
5 8 10 14 27 ;
set Cs[17]:=
1 13 20 24 25 30 ;
set Cs[18]:=
12 17 23 29 ;
set Cs[19]:=
7 9 29 ;
set Cs[20]:=
2 10 23 27 ;
set Cs[21]:=
3 5 6 7 ;
set Cs[22]:=
3 7 10 14 21 27 ;
set Cs[23]:=
5 6 15 ;
set Cs[24]:=
3 14 29 ;
set Cs[25]:=
8 15 22 28 ;
set Cs[26]:=
5 13 16 17 18 20 ;
set Cs[27]:=
7 8 16 18 ;
set Cs[28]:=
10 19 30 ;
set Cs[29]:=
1 2 3 12 17 26 ;
set Cs[30]:=
2 10 11 18 19 24 ;
set Cs[31]:=
1 2 5 25 ;
set Cs[32]:=
5 12 13 16 24 30 ;
set Cs[33]:=
9 13 16 20 26 30 ;
set Cs[34]:=
1 2 14 20 26 ;
set Cs[35]:=
7 8 23 30 ;
set Cs[36]:=
11 12 14 16 22 ;
set Cs[37]:=
17 19 20 ;
set Cs[38]:=
9 11 14 19 21 25 ;
set Cs[39]:=
8 10 18 30 ;
set Cs[40]:=
1 2 13 15 21 23 ;
set Cs[41]:=
3 7 24 26 ;
set Cs[42]:=
2 5 11 16 20 28 ;
set Cs[43]:=
4 7 8 15 25 ;
set Cs[44]:=
5 13 22 24 25 26 ;
set Cs[45]:=
2 8 12 29 30 ;
set Cs[46]:=
1 6 8 13 18 ;
set Cs[47]:=
3 6 8 17 29 ;
set Cs[48]:=
4 5 17 21 25 ;
set Cs[49]:=
9 12 22 25 27 30 ;
set Cs[50]:=
1 10 11 19 24 ;
set Cs[51]:=
11 24 28 ;
set Cs[52]:=
2 9 17 26 28 ;
set Cs[53]:=
21 24 25 26 ;
set Cs[54]:=
11 13 24 27 28 30 ;
set Cs[55]:=
6 13 22 23 26 ;
set Cs[56]:=
2 7 10 19 23 ;
set Cs[57]:=
5 26 30 ;
set Cs[58]:=
5 11 16 17 28 30 ;
set Cs[59]:=
2 8 9 10 12 ;
set Cs[60]:=
19 20 21 ;

set Ra[1_1]:=
5 6 7 10 ;
set Ra[1_2]:=
1 4 9 10 12 13 ;
set Ra[1_3]:=
1 2 4 5 7 10 13 14 15 ;
set Ra[2_1]:=
2 3 4 7 11 12 13 14 ;
set Ra[2_2]:=
13 ;
set Ra[2_3]:=
4 10 13 ;
set Ra[3_1]:=
1 2 5 12 13 15 ;
set Ra[3_2]:=
1 8 14 ;
set Ra[3_3]:=
2 5 8 10 11 12 13 14 15 ;
set Ra[4_1]:=
2 5 6 9 12 ;
set Ra[4_2]:=
2 5 6 7 8 9 11 12 ;
set Ra[4_3]:=
7 11 14 15 ;
set Ra[5_1]:=
3 4 5 8 12 13 14 15 ;
set Ra[5_2]:=
11 13 15 ;
set Ra[5_3]:=
1 2 3 4 6 7 8 10 ;
set Ra[6_1]:=
4 9 ;
set Ra[6_2]:=
2 3 4 6 11 14 ;
set Ra[7_1]:=
1 2 3 5 7 10 14 15 ;
set Ra[7_2]:=
1 2 4 7 8 12 14 15 ;
set Ra[7_3]:=
11 13 ;
set Ra[8_1]:=
4 6 8 11 13 15 ;
set Ra[8_2]:=
1 2 4 5 6 8 10 15 ;
set Ra[8_3]:=
7 8 9 15 ;
set Ra[9_1]:=
10 11 14 ;
set Ra[9_2]:=
4 6 7 8 9 11 15 ;
set Ra[9_3]:=
8 11 12 ;
set Ra[10_1]:=
1 4 5 9 13 ;
set Ra[10_2]:=
9 10 14 ;
set Ra[10_3]:=
2 3 5 8 9 14 ;
set Ra[11_1]:=
1 2 5 6 9 10 15 ;
set Ra[11_2]:=
5 9 13 ;
set Ra[12_1]:=
1 5 10 11 13 14 15 ;
set Ra[12_2]:=
3 5 6 8 10 13 ;
set Ra[13_1]:=
6 12 14 ;
set Ra[13_2]:=
6 9 11 ;
set Ra[14_1]:=
4 5 6 12 13 ;
set Ra[14_2]:=
9 10 12 ;
set Ra[15_1]:=
6 8 9 10 15 ;
set Ra[15_2]:=
3 8 10 11 12 13 ;
set Ra[16_1]:=
2 5 7 ;
set Ra[16_2]:=
2 6 8 12 13 14 ;
set Ra[17_1]:=
7 8 11 12 ;
set Ra[17_2]:=
2 7 11 12 ;
set Ra[17_3]:=
3 4 5 7 8 10 ;
set Ra[18_1]:=
4 12 13 15 ;
set Ra[18_2]:=
1 2 5 10 11 15 ;
set Ra[19_1]:=
2 6 7 9 10 11 12 14 15 ;
set Ra[19_2]:=
2 3 8 11 12 ;
set Ra[20_1]:=
1 2 3 5 6 8 10 11 13 ;
set Ra[20_2]:=
2 4 5 8 11 15 ;
set Ra[20_3]:=
3 4 7 9 10 11 12 14 ;
set Ra[21_1]:=
5 8 9 11 13 14 ;
set Ra[21_2]:=
3 6 11 15 ;
set Ra[22_1]:=
1 3 ;
set Ra[22_2]:=
5 7 9 ;
set Ra[23_1]:=
2 8 13 14 ;
set Ra[23_2]:=
1 2 3 5 13 ;
set Ra[23_3]:=
6 11 12 14 ;
set Ra[24_1]:=
8 10 12 ;
set Ra[24_2]:=
1 2 5 8 ;
set Ra[24_3]:=
1 2 4 5 6 10 12 13 ;
set Ra[25_1]:=
1 3 5 7 8 9 10 ;
set Ra[25_2]:=
2 4 10 13 15 ;
set Ra[26_1]:=
3 4 5 10 14 15 ;
set Ra[26_2]:=
1 2 4 5 10 12 14 ;
set Ra[27_1]:=
1 4 5 6 7 10 12 13 15 ;
set Ra[27_2]:=
3 4 5 6 7 9 10 11 12 ;
set Ra[27_3]:=
1 3 8 13 ;
set Ra[28_1]:=
6 15 ;
set Ra[28_2]:=
3 6 7 ;
set Ra[28_3]:=
1 2 3 6 11 12 15 ;
set Ra[29_1]:=
1 12 ;
set Ra[29_2]:=
4 8 10 14 ;
set Ra[30_1]:=
2 3 4 5 8 11 14 15 ;
set Ra[30_2]:=
4 9 10 12 14 15 ;
set Ra[30_3]:=
2 4 5 8 10 11 15 ;

set Ts[1]:=
2_19_20 4_3_4 5_3_4 5_9_10 ;
set Ts[2]:=
1_5_6 2_3_4 3_1_2 3_17_18 4_3_4 4_5_6 5_9_10 ;
set Ts[3]:=
1_9_10 1_19_20 2_9_10 2_15_16 3_19_20 4_7_8 4_17_18 5_3_4 5_7_8 5_9_10 ;
set Ts[4]:=
1_7_8 1_15_16 2_5_6 2_11_12 2_17_18 3_19_20 4_15_16 5_3_4 5_17_18 ;
set Ts[5]:=
1_7_8 1_11_12 1_19_20 3_7_8 3_17_18 4_3_4 5_11_12 ;
set Ts[6]:=
1_1_2 2_5_6 2_17_18 2_19_20 3_5_6 4_7_8 5_3_4 ;
set Ts[7]:=
1_3_4 1_7_8 1_17_18 1_19_20 2_5_6 2_17_18 2_19_20 3_15_16 3_19_20 4_1_2 4_5_6 5_3_4 5_11_12 5_15_16 5_19_20 ;
set Ts[8]:=
1_1_2 1_7_8 2_11_12 3_5_6 3_9_10 4_1_2 4_5_6 4_9_10 4_19_20 ;
set Ts[9]:=
1_7_8 1_11_12 1_13_14 2_3_4 2_11_12 2_17_18 3_9_10 4_5_6 4_9_10 4_19_20 ;
set Ts[10]:=
1_19_20 2_3_4 2_15_16 2_17_18 3_11_12 3_15_16 5_1_2 5_5_6 5_11_12 ;
set Ts[11]:=
2_13_14 2_19_20 3_15_16 5_9_10 ;
set Ts[12]:=
1_5_6 1_7_8 1_11_12 2_3_4 2_5_6 2_13_14 2_15_16 3_9_10 3_15_16 3_17_18 5_3_4 5_5_6 5_7_8 5_17_18 5_19_20 ;
set Ts[13]:=
1_11_12 1_15_16 1_19_20 2_11_12 2_19_20 3_7_8 3_9_10 3_13_14 4_1_2 4_3_4 5_3_4 5_19_20 ;
set Ts[14]:=
1_5_6 1_17_18 1_19_20 2_17_18 2_19_20 3_9_10 4_7_8 4_9_10 4_19_20 ;
set Ts[15]:=
1_15_16 2_15_16 3_3_4 3_11_12 3_15_16 3_19_20 4_7_8 4_11_12 4_17_18 5_1_2 5_5_6 ;
set Ts[16]:=
1_7_8 2_1_2 2_3_4 2_9_10 3_5_6 4_1_2 5_5_6 ;
set Ts[17]:=
1_1_2 1_9_10 1_15_16 2_7_8 3_15_16 3_19_20 4_11_12 5_1_2 ;
set Ts[18]:=
1_7_8 2_13_14 2_15_16 3_1_2 3_15_16 4_5_6 4_11_12 5_15_16 5_19_20 ;
set Ts[19]:=
1_3_4 1_5_6 1_17_18 2_5_6 3_11_12 3_17_18 4_1_2 4_5_6 4_13_14 4_15_16 ;
set Ts[20]:=
1_19_20 2_7_8 2_15_16 2_19_20 3_5_6 3_7_8 3_11_12 3_13_14 4_9_10 4_11_12 4_15_16 4_17_18 5_1_2 ;
set Ts[21]:=
1_7_8 4_1_2 4_17_18 5_5_6 ;
set Ts[22]:=
1_13_14 2_5_6 2_11_12 2_13_14 3_5_6 3_19_20 4_1_2 4_11_12 5_1_2 5_11_12 ;
set Ts[23]:=
1_11_12 2_3_4 2_7_8 2_13_14 3_13_14 3_15_16 3_17_18 4_3_4 4_15_16 4_17_18 5_1_2 5_3_4 5_5_6 5_9_10 5_15_16 ;
set Ts[24]:=
2_17_18 3_3_4 3_9_10 4_17_18 5_15_16 ;
set Ts[25]:=
1_7_8 1_13_14 1_17_18 2_1_2 2_5_6 3_9_10 3_13_14 4_15_16 ;
set Ts[26]:=
1_19_20 3_13_14 4_1_2 4_9_10 4_19_20 ;
set Ts[27]:=
1_9_10 1_13_14 3_13_14 5_19_20 ;
set Ts[28]:=
2_19_20 3_3_4 3_17_18 4_17_18 ;
set Ts[29]:=
1_7_8 1_9_10 2_3_4 2_5_6 2_17_18 3_3_4 3_7_8 3_13_14 4_1_2 4_5_6 4_15_16 4_19_20 5_1_2 5_3_4 5_19_20 ;
set Ts[30]:=
1_1_2 2_17_18 2_19_20 3_3_4 3_7_8 3_19_20 4_15_16 ;
set Ts[31]:=
1_17_18 3_1_2 4_13_14 5_1_2 5_13_14 5_17_18 ;
set Ts[32]:=
2_13_14 3_11_12 3_19_20 4_1_2 4_5_6 4_17_18 ;
set Ts[33]:=
1_5_6 1_13_14 2_3_4 2_5_6 2_15_16 3_9_10 3_13_14 3_19_20 4_7_8 4_15_16 4_17_18 4_19_20 5_3_4 ;
set Ts[34]:=
1_19_20 2_3_4 3_1_2 3_9_10 3_13_14 4_15_16 4_17_18 5_3_4 5_5_6 ;
set Ts[35]:=
1_11_12 1_17_18 2_5_6 2_9_10 3_13_14 3_17_18 4_1_2 4_11_12 4_13_14 5_1_2 5_17_18 ;
set Ts[36]:=
1_1_2 1_11_12 2_13_14 2_15_16 2_17_18 2_19_20 3_1_2 3_13_14 4_1_2 4_3_4 5_3_4 5_11_12 5_15_16 5_17_18 5_19_20 ;
set Ts[37]:=
1_9_10 2_5_6 2_7_8 2_9_10 3_1_2 3_11_12 3_19_20 4_3_4 4_5_6 4_9_10 4_15_16 ;
set Ts[38]:=
2_7_8 3_3_4 4_5_6 5_13_14 ;
set Ts[39]:=
1_5_6 1_11_12 1_13_14 1_15_16 2_7_8 3_1_2 3_13_14 3_19_20 4_11_12 ;
set Ts[40]:=
1_11_12 2_5_6 2_7_8 2_9_10 3_3_4 3_9_10 3_17_18 3_19_20 4_1_2 4_3_4 4_7_8 5_17_18 ;
set Ts[41]:=
1_5_6 2_3_4 2_7_8 2_19_20 3_1_2 4_17_18 5_7_8 ;
set Ts[42]:=
1_13_14 4_7_8 4_9_10 4_19_20 5_7_8 5_11_12 ;
set Ts[43]:=
1_7_8 1_15_16 2_9_10 3_1_2 3_7_8 3_15_16 5_1_2 5_5_6 5_11_12 5_15_16 ;
set Ts[44]:=
1_11_12 3_3_4 3_13_14 4_7_8 5_5_6 ;
set Ts[45]:=
1_11_12 1_13_14 2_7_8 2_11_12 2_19_20 3_1_2 3_19_20 4_1_2 4_9_10 5_3_4 ;
set Ts[46]:=
1_1_2 1_7_8 1_19_20 2_5_6 3_9_10 3_19_20 4_3_4 ;
set Ts[47]:=
1_3_4 1_5_6 1_9_10 1_13_14 1_15_16 2_11_12 2_15_16 3_1_2 3_9_10 3_11_12 3_13_14 ;
set Ts[48]:=
1_13_14 2_7_8 2_13_14 2_15_16 3_3_4 3_19_20 4_3_4 4_17_18 4_19_20 5_7_8 ;
set Ts[49]:=
1_9_10 2_1_2 2_3_4 3_1_2 3_3_4 4_15_16 5_19_20 ;
set Ts[50]:=
1_13_14 2_5_6 2_11_12 2_19_20 4_1_2 5_9_10 ;
set Ts[51]:=
1_19_20 2_3_4 2_13_14 3_5_6 4_3_4 4_13_14 4_19_20 5_3_4 5_9_10 5_11_12 ;
set Ts[52]:=
1_11_12 2_1_2 2_3_4 3_11_12 3_15_16 5_1_2 5_5_6 ;
set Ts[53]:=
2_9_10 2_11_12 2_13_14 3_1_2 3_5_6 4_5_6 4_7_8 4_9_10 5_1_2 5_3_4 5_15_16 5_19_20 ;
set Ts[54]:=
1_3_4 1_7_8 1_17_18 2_7_8 3_17_18 4_5_6 4_7_8 4_11_12 4_19_20 ;
set Ts[55]:=
1_5_6 1_7_8 1_11_12 2_7_8 2_11_12 3_3_4 3_11_12 4_1_2 4_7_8 4_17_18 4_19_20 5_3_4 ;
set Ts[56]:=
1_7_8 1_19_20 2_3_4 4_5_6 5_11_12 ;
set Ts[57]:=
1_3_4 1_11_12 2_9_10 2_15_16 2_17_18 3_7_8 3_11_12 4_5_6 4_7_8 4_15_16 5_3_4 5_11_12 5_15_16 ;
set Ts[58]:=
1_7_8 1_15_16 1_19_20 2_5_6 2_9_10 3_1_2 3_17_18 4_11_12 4_17_18 5_9_10 ;
set Ts[59]:=
2_3_4 2_5_6 3_11_12 3_19_20 4_3_4 4_19_20 5_1_2 5_5_6 5_19_20 ;
set Ts[60]:=
1_7_8 2_7_8 2_13_14 3_17_18 4_15_16 5_7_8 ;

param rho:=
1 20
2 20
3 20
4 20
5 20
6 20
7 20
8 20
9 20
10 20
11 20
12 20
13 20
14 20
15 20
;

param sigma_class:=
1 30
2 30
3 30
4 30
5 30
6 30
7 30
8 30
9 30
10 30
11 30
12 30
13 30
14 30
15 30
16 30
17 30
18 30
19 30
20 30
21 30
22 30
23 30
24 30
25 30
26 30
27 30
28 30
29 30
30 30
;

param kmin:=
1 2
2 2
3 2
4 2
5 3
6 2
7 3
8 3
9 3
10 2
11 3
12 1
13 3
14 2
15 3
16 2
17 3
18 2
19 1
20 2
21 2
22 3
23 1
24 1
25 2
26 3
27 2
28 1
29 3
30 3
31 2
32 3
33 3
34 2
35 2
36 2
37 1
38 3
39 2
40 3
41 2
42 3
43 2
44 3
45 2
46 2
47 2
48 2
49 3
50 2
51 1
52 2
53 2
54 3
55 2
56 2
57 1
58 3
59 2
60 1
;

param kmax:=
1 5
2 4
3 5
4 4
5 6
6 5
7 6
8 6
9 6
10 4
11 6
12 3
13 6
14 5
15 6
16 5
17 6
18 4
19 3
20 4
21 4
22 6
23 3
24 3
25 4
26 6
27 4
28 3
29 6
30 6
31 4
32 6
33 6
34 5
35 4
36 5
37 3
38 6
39 4
40 6
41 4
42 6
43 5
44 6
45 5
46 5
47 5
48 5
49 6
50 5
51 3
52 5
53 4
54 6
55 5
56 5
57 3
58 6
59 5
60 3
;

